Route #1: 1 3 8 10 14 9 6 1 
Route #2: 1 5 7 1 
Route #3: 1 1 2 11 1 
Route #4: 1 4 13 1 
Route #5: 1 12 15 21 1 
Route #6: 1 16 18 1 
Route #7: 1 17 20 1 
Route #8: 1 19 1 

Cost 1061.33
Time 0.0871


 * Another infos *

 Iterations: 22 Time: 0.0871 sec - 0.0015 min - 0.0000 horas
0.0000 h 0.0015 min
Problem dimension: 22
